 O Sr Ti 
 1.0000000000000000
     5.5792563513249682    0.0000000000000000    0.0000000000000000
     0.0000000000000000   11.8353900000000003    0.0000000000000000
     0.0000000000000000    0.0000000000000000   33.1325831418061512
 O   Sr  Ti 
  65  15  25
Selective dynamics
Direct
  0.2416864585501196  0.1845309625784435  0.2819841426972958   T   T   T
  0.7544840682711783  0.1678368315383282  0.2845214393784881   T   T   T
  0.7495600012989746  0.1648490532727971  0.3716851104868622   T   T   T
  0.0050102673139675  0.9977718907243892  0.3286787100633546   T   T   T
  0.2536709847624224  0.1648326645631686  0.3710441568661222   T   T   T
  0.2500000000000000  0.1666666666666667  0.4579020421721574   F   F   F
  0.5000000000000000  0.0000000000000000  0.4158040843443148   F   F   F
  0.7500000000000004  0.1666666666666667  0.4579020421721575   F   F   F
  0.7500000000000001  0.1666666666666667  0.5420979578278425   F   F   F
  0.0000000000000000  0.0000000000000000  0.5000000000000000   F   F   F
  0.2500000000000000  0.1666666666666667  0.5420979578278424   F   F   F
  0.2503178615548597  0.1657004701807781  0.6283508018853278   T   T   T
  0.5000000000000006  0.0000000000000000  0.5841959156556848   F   F   F
  0.7461827871430069  0.1659882596532173  0.6289763561746635   T   T   T
  0.7712378896462230  0.1887033128252247  0.7179657666254620   T   T   T
  0.9949883086708772  0.0022281297122287  0.6713212794353963   T   T   T
  0.2526727558352616  0.1687955178313982  0.7154217977547028   T   T   T
  0.2414043713219304  0.4982924797696515  0.2876315618074865   T   T   T
  0.7669209459717925  0.4989004713473155  0.2861945966263794   T   T   T
  0.7454242253704216  0.4986474747408631  0.3731242225940774   T   T   T
  0.9972182675937249  0.3323236283960510  0.3335106149148604   T   T   T
  0.2534414248358586  0.4988342368178506  0.3732861975162204   T   T   T
  0.2500000000000000  0.5000000000000000  0.4579020421721574   F   F   F
  0.5000000000000000  0.3333333333333333  0.4158040843443148   F   F   F
  0.7500000000000004  0.5000000000000000  0.4579020421721575   F   F   F
  0.7500000000000001  0.5000000000000000  0.5420979578278425   F   F   F
  0.0000000000000000  0.3333333333333333  0.5000000000000000   F   F   F
  0.2500000000000000  0.5000000000000000  0.5420979578278424   F   F   F
  0.2545752371814636  0.5013525124224630  0.6268758176308463   T   T   T
  0.5000000000000006  0.3333333333333333  0.5841959156556848   F   F   F
  0.7465581292133706  0.5011657625120194  0.6267137680508387   T   T   T
  0.7585940443509367  0.5017075022317607  0.7123683503290303   T   T   T
  0.0033048946169880  0.3355224137232876  0.6658310314715287   T   T   T
  0.2330773622577682  0.5010995557089716  0.7138054858472789   T   T   T
  0.2287603130089254  0.8112967251609434  0.2820342255598748   T   T   T
  0.7473254346114071  0.8312045277773457  0.2845782473623031   T   T   T
  0.7496812440243589  0.8342994626064586  0.3716491906144123   T   T   T
  0.9966939957055505  0.6644775657232802  0.3341689875737399   T   T   T
  0.2538163030022436  0.8340117569896820  0.3710235990053238   T   T   T
  0.2500000000000000  0.8333333333333333  0.4579020421721574   F   F   F
  0.5000000000000000  0.6666666666666666  0.4158040843443148   F   F   F
  0.7500000000000004  0.8333333333333333  0.4579020421721575   F   F   F
  0.7500000000000001  0.8333333333333333  0.5420979578278425   F   F   F
  0.0000000000000000  0.6666666666666666  0.5000000000000000   F   F   F
  0.2500000000000000  0.8333333333333333  0.5420979578278424   F   F   F
  0.2504391467150640  0.8351509774149074  0.6283149258472458   T   T   T
  0.5000000000000006  0.6666666666666666  0.5841959156556848   F   F   F
  0.7463281067176990  0.8351673539264729  0.6289558259308227   T   T   T
  0.7583115223459914  0.8154689114686037  0.7180158647869296   T   T   T
  0.0027806061073545  0.6676763658052381  0.6664893644430194   T   T   T
  0.2455138157120730  0.8321631307037938  0.7154786070852063   T   T   T
  0.5057821757470417  0.2397854011755182  0.2084530834169331   T   T   T
  0.4942147962075072  0.7602146632730260  0.7915469494032094   T   T   T
  0.5494874900249107  0.9990714952904794  0.2337292615620997   T   T   T
  0.4505088682442500  0.0009285022911426  0.7662707543833085   T   T   T
  0.5019990349820264  0.7516878089062695  0.2104609467376344   T   T   T
  0.4979982183956613  0.2483120817918579  0.7895390972123267   T   T   T
  0.9989553782861810  0.1169794696473882  0.2065316481954678   T   T   T
  0.0010411785737690  0.8830205448956746  0.7934684209612461   T   T   T
  0.9914932358347929  0.8699225315269562  0.2057382882877860   T   T   T
  0.0085035328298857  0.1300774551860314  0.7942617786160938   T   T   T
  0.0338530659221564  0.3541775631174374  0.2254405868747610   T   T   T
  0.9661439267816292  0.6458223580082902  0.7745594560945956   T   T   T
  0.0349765804555506  0.6329718906933329  0.2246790845287577   T   T   T
  0.9650207352563595  0.3670280877531879  0.7753209363389858   T   T   T
  0.4872971801591471  0.0027079524753763  0.3184845623635498   T   T   T
  0.0000000000000000  0.0000000000000000  0.4158040843443148   F   F   F
  0.5000000000000002  0.0000000000000000  0.5000000000000000   F   F   F
  0.0000000000000000  0.0000000000000000  0.5841959156556848   F   F   F
  0.5127016404548270  0.9972920221309651  0.6815155514765712   T   T   T
  0.5067685938243915  0.3386207258829804  0.3185742079315579   T   T   T
  0.0000000000000000  0.3333333333333333  0.4158040843443148   F   F   F
  0.5000000000000002  0.3333333333333333  0.5000000000000000   F   F   F
  0.0000000000000000  0.3333333333333333  0.5841959156556848   F   F   F
  0.4930106905822745  0.3352916157273861  0.6814163409941687   T   T   T
  0.5069879898678730  0.6647083153255293  0.3185836337498131   T   T   T
  0.0000000000000000  0.6666666666666666  0.4158040843443148   F   F   F
  0.5000000000000002  0.6666666666666666  0.5000000000000000   F   F   F
  0.0000000000000000  0.6666666666666666  0.5841959156556848   F   F   F
  0.4932300617005664  0.6613793259221843  0.6814257765837153   T   T   T
  0.9994086740175055  0.1772357604704679  0.3308172448027901   T   T   T
  0.5000000000000000  0.1666666666666667  0.4158040843443148   F   F   F
  0.0000000000000000  0.1666666666666667  0.5000000000000000   F   F   F
  0.5000000000000006  0.1666666666666667  0.5841959156556848   F   F   F
  0.0008443892260519  0.1585528693029676  0.6694348752512392   T   T   T
  0.0016270778340730  0.5095751986610597  0.3352889275070564   T   T   T
  0.5000000000000000  0.5000000000000000  0.4158040843443148   F   F   F
  0.0000000000000000  0.5000000000000000  0.5000000000000000   F   F   F
  0.5000000000000006  0.5000000000000000  0.5841959156556848   F   F   F
  0.9983720209003513  0.4904247896543262  0.6647110894904117   T   T   T
  0.9991545615803767  0.8414471004125318  0.3305651193923544   T   T   T
  0.5000000000000000  0.8333333333333333  0.4158040843443148   F   F   F
  0.0000000000000000  0.8333333333333333  0.5000000000000000   F   F   F
  0.5000000000000006  0.8333333333333333  0.5841959156556848   F   F   F
  0.0005902597226062  0.8227641922419435  0.6691827462818534   T   T   T
  0.7084892626243118  0.1355293395265801  0.2310627374785844   T   T   T
  0.2915073915590854  0.8644706174192214  0.7689373345418185   T   T   T
  0.7011444630333308  0.8605794321252066  0.2310937769050101   T   T   T
  0.2988524205154856  0.1394206316044862  0.7689062973789312   T   T   T
  0.2013148449220884  0.2223947488541619  0.2286953004778459   T   T   T
  0.7986821282198519  0.7776051598091790  0.7713047101043855   T   T   T
  0.0079881051573227  0.4944380410053016  0.2492992597102472   T   T   T
  0.9920097259913541  0.5055619480446577  0.7507007611735663   T   T   T
  0.1936089313840487  0.7669956579128018  0.2290713520355802   T   T   T
  0.8063882739720009  0.2330043728455847  0.7709286450036860   T   T   T
